
se = 80; % nombre de sessions
gr = 40; % nombre de grups de treball
cl = 12; % nombre de slots
minPapersPerSlot = 3; % minim nombre d'articles per sessio i slot
maxSesionsPar = 20; % maxim nombre de sessions paraleles

npMax = [5, 4, 6, 5, 5, 6, 5, 6, 4, 6, 3, 4]; % nombre maxim de papers per slot

np = [4, 7, 12, 20, 20, 3, 3, 6, 8, 3, 4, 10, 10, 3, 3, 12, 16, 16, 12, 16, 14, 3, 15, 17, 5, 13, 19, 16, 17, 7, 11, 16, 5, 16, 3, 7, 6, 7, 3, 12, 20, 8, 17, 4, 4, 17, 16, 7, 12, 17, 3, 12, 13, 12, 18, 3, 19, 17, 9, 8, 9, 10, 8, 7, 3, 5, 3, 3, 12, 16, 10, 4, 10, 18, 15, 12, 4, 17, 9, 15]; % nombre de papers acceptats a cada sessio

WG = [ {}, {1}, {2,3}, {4}, {5}, {}, {6}, {}, {7}, {8}, {9}, {10}, {}, {}, {11}, {12}, {13,14}, {15}, {16}, {17,18,19}, {20}, {21,22,23}, {}, {24}, {}, {25}, {26,27,28}, {29}, {}, {}, {30}, {31,32,33}, {34}, {35}, {36}, {37,38}, {39}, {}, {40}, {}, {1}, {}, {2}, {3}, {4,5,6}, {7}, {8,9}, {10}, {11}, {12,13,14}, {15}, {16}, {17}, {18,19}, {20}, {21}, {22,23}, {24,25}, {}, {26}, {}, {27}, {28}, {}, {29}, {30}, {}, {31}, {}, {32,33}, {}, {34,35}, {36}, {37}, {}, {38}, {39}, {40,1,2}, {3}, {4,5,6} ]; % grups per sessio

